# Solution for model micodag
# Objective value = 1.5854965189772502e+01
s_0_1 0
s_1_0 0
s_0_2 0
s_2_0 1.7230515418940584e-01
s_0_3 0
s_3_0 2.5833622495284736e-01
s_1_8 0
s_8_1 1.3102177537235908e+00
s_3_4 0
s_4_3 1.5637478923394887e-01
s_3_5 0
s_5_3 0
s_3_6 0
s_6_3 0
s_3_7 0
s_7_3 1.7407316609323065e-01
s_3_9 0
s_9_3 0
s_3_10 0
s_10_3 4.0272294248852347e-01
s_3_13 0
s_13_3 7.3086463832977078e-01
s_4_5 0
s_5_4 2.2723979906078018e-01
s_4_6 0
s_6_4 7.2651222171404939e-01
s_4_7 1.2766881261509160e+00
s_7_4 0
s_5_10 0
s_10_5 2.4136069898581258e-01
s_6_7 0
s_7_6 0
s_6_9 0
s_9_6 0
s_6_10 0
s_10_6 0
s_6_13 0
s_13_6 5.6009883715728392e-01
s_7_9 0
s_9_7 0
s_7_10 0
s_10_7 0
s_7_13 0
s_13_7 5.9842005069358084e-01
s_8_9 0
s_9_8 7.7389311421029294e-01
s_9_10 0
s_10_9 0
s_9_13 0
s_13_9 2.5953954548288483e-01
s_10_11 0
s_11_10 2.3382313137312050e-01
s_10_12 0
s_12_10 5.3083380694394044e-01
s_10_13 0
s_13_10 6.5623329592426849e-01
s_0_0 6.9067564329246789e-01
s_1_1 1.0111783730940580e+00
s_2_2 6.7176148759629051e-01
s_3_3 6.7491481206475434e-01
s_4_4 2.5172068675495471e+00
s_5_5 7.0016385084725741e-01
s_6_6 1.1341842662182424e+00
s_7_7 8.2372038858335817e-01
s_8_8 2.0710214517755108e+00
s_9_9 1.0718293533623333e+00
s_10_10 0.672946104961734
s_11_11 7.0573889430550185e-01
s_12_12 9.3523381995761623e-01
s_13_13 9.5087112523107153e-01
Gamma_0_0 8.3106897625435938e-01
Gamma_0_1 0
Gamma_0_2 0
Gamma_0_3 0
Gamma_0_4 0
Gamma_0_5 0
Gamma_0_6 0
Gamma_0_7 0
Gamma_0_8 0
Gamma_0_9 0
Gamma_0_10 0
Gamma_0_11 0
Gamma_0_12 0
Gamma_0_13 0
Gamma_1_0 0
Gamma_1_1 1.0055736537390281e+00
Gamma_1_2 0
Gamma_1_3 0
Gamma_1_4 0
Gamma_1_5 0
Gamma_1_6 0
Gamma_1_7 0
Gamma_1_8 0
Gamma_1_9 0
Gamma_1_10 0
Gamma_1_11 0
Gamma_1_12 0
Gamma_1_13 0
Gamma_2_0 -4.1509656007898554e-01
Gamma_2_1 0
Gamma_2_2 0.819610570695798
Gamma_2_3 0
Gamma_2_4 0
Gamma_2_5 0
Gamma_2_6 0
Gamma_2_7 0
Gamma_2_8 0
Gamma_2_9 0
Gamma_2_10 0
Gamma_2_11 0
Gamma_2_12 0
Gamma_2_13 0
Gamma_3_0 5.0826786732278129e-01
Gamma_3_1 0
Gamma_3_2 0
Gamma_3_3 0.821531990895519
Gamma_3_4 0
Gamma_3_5 0
Gamma_3_6 0
Gamma_3_7 0
Gamma_3_8 0
Gamma_3_9 0
Gamma_3_10 0
Gamma_3_11 0
Gamma_3_12 0
Gamma_3_13 0
Gamma_4_0 0
Gamma_4_1 0
Gamma_4_2 0
Gamma_4_3 -3.9544252330009932e-01
Gamma_4_4 1.5865707886979223e+00
Gamma_4_5 0
Gamma_4_6 0
Gamma_4_7 -1.1299062466200087e+00
Gamma_4_8 0
Gamma_4_9 0
Gamma_4_10 0
Gamma_4_11 0
Gamma_4_12 0
Gamma_4_13 0
Gamma_5_0 0
Gamma_5_1 0
Gamma_5_2 0
Gamma_5_3 0
Gamma_5_4 -4.7669675797175393e-01
Gamma_5_5 8.3675794041482388e-01
Gamma_5_6 0
Gamma_5_7 0
Gamma_5_8 0
Gamma_5_9 0
Gamma_5_10 0
Gamma_5_11 0
Gamma_5_12 0
Gamma_5_13 0
Gamma_6_0 0
Gamma_6_1 0
Gamma_6_2 0
Gamma_6_3 0
Gamma_6_4 8.5235686288904255e-01
Gamma_6_5 0
Gamma_6_6 1.0649808759870960e+00
Gamma_6_7 0
Gamma_6_8 0
Gamma_6_9 0
Gamma_6_10 0
Gamma_6_11 0
Gamma_6_12 0
Gamma_6_13 0
Gamma_7_0 0
Gamma_7_1 0
Gamma_7_2 0
Gamma_7_3 -4.1722076421629745e-01
Gamma_7_4 0
Gamma_7_5 0
Gamma_7_6 0
Gamma_7_7 9.0759042997563510e-01
Gamma_7_8 0
Gamma_7_9 0
Gamma_7_10 0
Gamma_7_11 0
Gamma_7_12 0
Gamma_7_13 0
Gamma_8_0 0
Gamma_8_1 1.1446474364290480e+00
Gamma_8_2 0
Gamma_8_3 0
Gamma_8_4 0
Gamma_8_5 0
Gamma_8_6 0
Gamma_8_7 0
Gamma_8_8 1.4391043922438396e+00
Gamma_8_9 0
Gamma_8_10 0
Gamma_8_11 0
Gamma_8_12 0
Gamma_8_13 0
Gamma_9_0 0
Gamma_9_1 0
Gamma_9_2 0
Gamma_9_3 0
Gamma_9_4 0
Gamma_9_5 0
Gamma_9_6 0
Gamma_9_7 0
Gamma_9_8 8.7971194956661436e-01
Gamma_9_9 1.0352919169791359e+00
Gamma_9_10 0
Gamma_9_11 0
Gamma_9_12 0
Gamma_9_13 0
Gamma_10_0 0
Gamma_10_1 0
Gamma_10_2 0
Gamma_10_3 -0.634604555994144
Gamma_10_4 0
Gamma_10_5 -4.9128474328622629e-01
Gamma_10_6 0
Gamma_10_7 0
Gamma_10_8 0
Gamma_10_9 0
Gamma_10_10 0.820332923246248
Gamma_10_11 0
Gamma_10_12 0
Gamma_10_13 0
Gamma_11_0 0
Gamma_11_1 0
Gamma_11_2 0
Gamma_11_3 0
Gamma_11_4 0
Gamma_11_5 0
Gamma_11_6 0
Gamma_11_7 0
Gamma_11_8 0
Gamma_11_9 0
Gamma_11_10 -4.8355261489637424e-01
Gamma_11_11 8.4008267111368451e-01
Gamma_11_12 0
Gamma_11_13 0
Gamma_12_0 0
Gamma_12_1 0
Gamma_12_2 0
Gamma_12_3 0
Gamma_12_4 0
Gamma_12_5 0
Gamma_12_6 0
Gamma_12_7 0
Gamma_12_8 0
Gamma_12_9 0
Gamma_12_10 -7.2858342483475547e-01
Gamma_12_11 0
Gamma_12_12 9.6707487815453941e-01
Gamma_12_13 0
Gamma_13_0 0
Gamma_13_1 0
Gamma_13_2 0
Gamma_13_3 8.5490621610196016e-01
Gamma_13_4 0
Gamma_13_5 0
Gamma_13_6 -7.4839751279469413e-01
Gamma_13_7 7.7357614408252151e-01
Gamma_13_8 0
Gamma_13_9 -5.0945023847563886e-01
Gamma_13_10 -8.1008227725600168e-01
Gamma_13_11 0
Gamma_13_12 0
Gamma_13_13 9.7512620989853016e-01
psi_0 6
psi_1 3
psi_2 0
psi_3 5
psi_4 3
psi_5 2
psi_6 1
psi_7 4
psi_8 2
psi_9 1
psi_10 1
psi_11 0
psi_12 0
psi_13 0
g_0_0 0
g_0_1 0
g_0_2 0
g_0_3 0
g_0_4 0
g_0_5 0
g_0_6 0
g_0_7 0
g_0_8 0
g_0_9 0
g_0_10 0
g_0_11 0
g_0_12 0
g_0_13 0
g_1_0 0
g_1_1 0
g_1_2 0
g_1_3 0
g_1_4 0
g_1_5 0
g_1_6 0
g_1_7 0
g_1_8 0
g_1_9 0
g_1_10 0
g_1_11 0
g_1_12 0
g_1_13 0
g_2_0 1
g_2_1 0
g_2_2 0
g_2_3 0
g_2_4 0
g_2_5 0
g_2_6 0
g_2_7 0
g_2_8 0
g_2_9 0
g_2_10 0
g_2_11 0
g_2_12 0
g_2_13 0
g_3_0 1
g_3_1 0
g_3_2 0
g_3_3 0
g_3_4 0
g_3_5 0
g_3_6 0
g_3_7 0
g_3_8 0
g_3_9 0
g_3_10 0
g_3_11 0
g_3_12 0
g_3_13 0
g_4_0 0
g_4_1 0
g_4_2 0
g_4_3 1
g_4_4 0
g_4_5 0
g_4_6 0
g_4_7 1
g_4_8 0
g_4_9 0
g_4_10 0
g_4_11 0
g_4_12 0
g_4_13 0
g_5_0 0
g_5_1 0
g_5_2 0
g_5_3 0
g_5_4 1
g_5_5 0
g_5_6 0
g_5_7 0
g_5_8 0
g_5_9 0
g_5_10 0
g_5_11 0
g_5_12 0
g_5_13 0
g_6_0 0
g_6_1 0
g_6_2 0
g_6_3 0
g_6_4 1
g_6_5 0
g_6_6 0
g_6_7 0
g_6_8 0
g_6_9 0
g_6_10 0
g_6_11 0
g_6_12 0
g_6_13 0
g_7_0 0
g_7_1 0
g_7_2 0
g_7_3 1
g_7_4 0
g_7_5 0
g_7_6 0
g_7_7 0
g_7_8 0
g_7_9 0
g_7_10 0
g_7_11 0
g_7_12 0
g_7_13 0
g_8_0 0
g_8_1 1
g_8_2 0
g_8_3 0
g_8_4 0
g_8_5 0
g_8_6 0
g_8_7 0
g_8_8 0
g_8_9 0
g_8_10 0
g_8_11 0
g_8_12 0
g_8_13 0
g_9_0 0
g_9_1 0
g_9_2 0
g_9_3 0
g_9_4 0
g_9_5 0
g_9_6 0
g_9_7 0
g_9_8 1
g_9_9 0
g_9_10 0
g_9_11 0
g_9_12 0
g_9_13 0
g_10_0 0
g_10_1 0
g_10_2 0
g_10_3 1
g_10_4 0
g_10_5 1
g_10_6 0
g_10_7 0
g_10_8 0
g_10_9 0
g_10_10 0
g_10_11 0
g_10_12 0
g_10_13 0
g_11_0 0
g_11_1 0
g_11_2 0
g_11_3 0
g_11_4 0
g_11_5 0
g_11_6 0
g_11_7 0
g_11_8 0
g_11_9 0
g_11_10 1
g_11_11 0
g_11_12 0
g_11_13 0
g_12_0 0
g_12_1 0
g_12_2 0
g_12_3 0
g_12_4 0
g_12_5 0
g_12_6 0
g_12_7 0
g_12_8 0
g_12_9 0
g_12_10 1
g_12_11 0
g_12_12 0
g_12_13 0
g_13_0 0
g_13_1 0
g_13_2 0
g_13_3 1
g_13_4 0
g_13_5 0
g_13_6 1
g_13_7 1
g_13_8 0
g_13_9 1
g_13_10 1
g_13_11 0
g_13_12 0
g_13_13 0
T_0 3.7008496731024820e-01
T_1 -1.1116356814312667e-02
T_2 3.9785193063343627e-01
T_3 3.9316880042255775e-01
T_4 -9.2314990091638549e-01
T_5 3.5644089869052209e-01
T_6 -1.2591368436106620e-01
T_7 1.9392414090305010e-01
T_8 -7.2804194053243521e-01
T_9 -6.9366864680958429e-02
T_10 3.9609003432461520e-01
T_11 3.4850994799005264e-01
T_12 6.6958706135963553e-02
T_13 5.0376740623860883e-02
